NAME : 10_3_3_3_(37).dat
COMMENT : Henke, Speranza, Wäscher, 2015
TYPE : MCVRP
DIMENSION : 11
EDGE_WEIGHT_TYPE : DISTANCE_MATRIX
CAPACITY : 1000
VEHICLES : 2
PRODUCT TYPES : 3
COMPARTMENTS : 3
NODE_COORD_SECTION
1 50 50
2 75.69 66.22
3 90.31 20.65
4 89.15 83.82
5 60.93 48.43
6 98.99 7.86
7 26.04 15.49
8 82.16 12.15
9 46.3 80.65
10 99.18 8.28
11 7.06 52.77
DEMAND_SECTION
1 0 0 0
2 61 40 28
3 15 45 5
4 83 10 40
5 88 56 9
6 1 69 55
7 97 25 64
8 124 65 24
9 65 40 28
10 123 35 31
11 69 51 6
DEPOT_SECTION
1
EOF